benchmarks_CP/INST_64x64/40/inst64x64_40_9.dzn
S=8;
start=[|
-1,	-1,	38,	19,	-1,	-1,	-1,	-1,	30,	-1,	57,	53,	31,	-1,	-1,	-1,	28,	-1,	-1,	-1,	13,	39,	48,	45,	-1,	-1,	-1,	-1,	-1,	-1,	4,	-1,	-1,	11,	-1,	-1,	-1,	-1,	-1,	-1,	8,	-1,	-1,	16,	-1,	-1,	9,	-1,	27,	50,	32,	-1,	-1,	-1,	-1,	-1,	37,	-1,	-1,	-1,	-1,	-1,	-1,	58|
-1,	60,	-1,	-1,	34,	43,	-1,	31,	-1,	29,	-1,	36,	-1,	21,	-1,	7,	-1,	-1,	6,	16,	8,	46,	-1,	-1,	-1,	-1,	-1,	-1,	-1,	-1,	47,	-1,	-1,	-1,	-1,	-1,	-1,	52,	-1,	-1,	-1,	-1,	23,	14,	-1,	-1,	-1,	-1,	44,	-1,	26,	56,	-1,	-1,	-1,	-1,	19,	-1,	-1,	45,	-1,	38,	-1,	25|
25,	-1,	-1,	51,	-1,	58,	-1,	-1,	-1,	32,	-1,	40,	10,	45,	-1,	16,	-1,	55,	-1,	-1,	-1,	-1,	-1,	-1,	9,	-1,	-1,	7,	27,	-1,	-1,	-1,	-1,	-1,	-1,	13,	-1,	-1,	39,	-1,	-1,	-1,	-1,	24,	-1,	-1,	31,	57,	-1,	-1,	-1,	6,	29,	-1,	-1,	-1,	56,	-1,	5,	-1,	-1,	46,	-1,	-1|
1,	-1,	-1,	-1,	-1,	37,	-1,	18,	-1,	51,	-1,	-1,	-1,	-1,	13,	-1,	-1,	-1,	-1,	-1,	-1,	-1,	-1,	-1,	44,	45,	-1,	12,	-1,	-1,	49,	-1,	-1,	-1,	-1,	-1,	-1,	-1,	-1,	-1,	-1,	-1,	60,	15,	-1,	19,	46,	-1,	33,	-1,	8,	52,	-1,	-1,	-1,	-1,	-1,	-1,	24,	-1,	-1,	-1,	-1,	40|
61,	-1,	17,	-1,	-1,	-1,	-1,	-1,	12,	-1,	-1,	9,	8,	-1,	5,	-1,	-1,	-1,	-1,	56,	57,	2,	-1,	35,	-1,	46,	64,	-1,	-1,	-1,	-1,	14,	-1,	-1,	29,	1,	-1,	18,	15,	59,	21,	49,	-1,	40,	37,	33,	-1,	-1,	-1,	-1,	11,	-1,	-1,	42,	34,	45,	-1,	-1,	-1,	-1,	-1,	39,	53,	6|
-1,	-1,	9,	-1,	3,	-1,	50,	-1,	28,	-1,	-1,	27,	-1,	-1,	46,	35,	-1,	-1,	-1,	-1,	-1,	-1,	-1,	38,	-1,	-1,	19,	-1,	61,	30,	-1,	-1,	-1,	-1,	41,	-1,	-1,	-1,	4,	-1,	-1,	-1,	64,	-1,	-1,	26,	11,	-1,	40,	37,	-1,	-1,	-1,	43,	60,	12,	15,	34,	-1,	31,	-1,	-1,	-1,	-1|
-1,	-1,	13,	-1,	-1,	-1,	-1,	-1,	25,	-1,	-1,	-1,	11,	43,	34,	-1,	-1,	40,	-1,	-1,	-1,	-1,	61,	-1,	3,	-1,	18,	-1,	-1,	48,	38,	-1,	-1,	-1,	-1,	-1,	-1,	-1,	-1,	-1,	-1,	-1,	51,	52,	-1,	-1,	62,	63,	15,	-1,	-1,	5,	-1,	-1,	-1,	10,	-1,	23,	-1,	-1,	-1,	-1,	-1,	-1|
32,	2,	-1,	-1,	45,	10,	-1,	-1,	41,	24,	-1,	-1,	-1,	-1,	54,	15,	-1,	37,	-1,	-1,	-1,	-1,	51,	27,	50,	-1,	-1,	-1,	-1,	-1,	-1,	-1,	-1,	-1,	30,	-1,	-1,	-1,	49,	58,	56,	6,	-1,	20,	-1,	-1,	39,	18,	35,	-1,	-1,	13,	-1,	-1,	46,	-1,	-1,	63,	-1,	9,	-1,	-1,	57,	-1|
20,	-1,	42,	-1,	-1,	6,	-1,	44,	-1,	2,	64,	-1,	-1,	-1,	-1,	-1,	35,	26,	-1,	-1,	-1,	-1,	-1,	32,	-1,	-1,	-1,	-1,	54,	12,	29,	59,	3,	18,	-1,	40,	60,	-1,	-1,	-1,	-1,	-1,	-1,	47,	-1,	-1,	-1,	-1,	62,	30,	-1,	55,	-1,	-1,	-1,	22,	-1,	-1,	13,	10,	-1,	49,	4,	-1|
57,	-1,	37,	56,	-1,	-1,	-1,	63,	60,	3,	-1,	-1,	26,	-1,	-1,	-1,	40,	-1,	-1,	-1,	41,	-1,	59,	-1,	-1,	-1,	-1,	49,	-1,	-1,	-1,	-1,	-1,	-1,	38,	29,	-1,	-1,	32,	-1,	-1,	22,	-1,	-1,	-1,	-1,	-1,	-1,	19,	54,	-1,	-1,	-1,	21,	-1,	-1,	-1,	9,	-1,	36,	-1,	31,	6,	-1|
28,	47,	52,	23,	-1,	-1,	-1,	-1,	-1,	10,	-1,	-1,	7,	-1,	29,	-1,	18,	-1,	16,	19,	-1,	30,	-1,	50,	-1,	-1,	-1,	33,	-1,	43,	-1,	-1,	-1,	-1,	-1,	5,	-1,	1,	-1,	-1,	-1,	9,	-1,	59,	45,	-1,	-1,	-1,	14,	44,	-1,	38,	8,	-1,	-1,	40,	12,	-1,	60,	-1,	-1,	-1,	62,	-1|
12,	-1,	-1,	-1,	4,	3,	-1,	15,	-1,	21,	-1,	-1,	-1,	-1,	6,	-1,	-1,	57,	-1,	-1,	-1,	-1,	8,	-1,	-1,	40,	-1,	45,	-1,	-1,	-1,	-1,	46,	-1,	-1,	-1,	-1,	-1,	-1,	-1,	31,	-1,	38,	49,	18,	-1,	-1,	43,	20,	-1,	-1,	37,	61,	28,	56,	60,	-1,	19,	-1,	-1,	-1,	59,	25,	42|
26,	24,	-1,	-1,	-1,	38,	-1,	62,	-1,	-1,	-1,	34,	52,	19,	30,	-1,	-1,	46,	36,	-1,	-1,	-1,	-1,	-1,	18,	-1,	16,	-1,	20,	-1,	-1,	15,	57,	-1,	13,	64,	-1,	-1,	25,	-1,	-1,	56,	-1,	-1,	63,	-1,	-1,	-1,	48,	-1,	-1,	-1,	-1,	-1,	23,	59,	-1,	-1,	47,	2,	-1,	55,	14,	-1|
-1,	16,	-1,	60,	-1,	1,	-1,	-1,	-1,	-1,	-1,	46,	-1,	-1,	-1,	57,	-1,	45,	13,	-1,	-1,	14,	56,	25,	-1,	7,	51,	-1,	6,	28,	-1,	64,	-1,	22,	63,	33,	-1,	-1,	-1,	-1,	-1,	-1,	-1,	-1,	34,	35,	-1,	-1,	-1,	41,	36,	15,	-1,	-1,	29,	32,	-1,	-1,	-1,	-1,	-1,	-1,	-1,	-1|
40,	-1,	-1,	-1,	-1,	59,	30,	41,	32,	-1,	-1,	1,	-1,	-1,	-1,	62,	-1,	11,	10,	-1,	-1,	38,	-1,	-1,	-1,	-1,	4,	21,	14,	-1,	-1,	44,	-1,	-1,	-1,	-1,	16,	45,	19,	47,	60,	-1,	-1,	-1,	-1,	-1,	2,	64,	-1,	-1,	-1,	58,	-1,	27,	12,	49,	-1,	-1,	-1,	-1,	-1,	-1,	26,	22|
8,	-1,	18,	-1,	-1,	-1,	-1,	14,	39,	23,	22,	-1,	-1,	20,	31,	49,	58,	-1,	-1,	-1,	-1,	-1,	42,	-1,	-1,	-1,	-1,	60,	-1,	32,	-1,	-1,	44,	-1,	-1,	-1,	43,	-1,	59,	-1,	-1,	-1,	-1,	3,	55,	53,	-1,	40,	-1,	-1,	35,	-1,	-1,	-1,	-1,	-1,	-1,	29,	15,	-1,	30,	-1,	-1,	5|
22,	-1,	-1,	37,	-1,	47,	-1,	-1,	-1,	54,	-1,	-1,	-1,	32,	49,	-1,	-1,	-1,	59,	6,	-1,	3,	13,	34,	-1,	-1,	-1,	57,	51,	-1,	-1,	-1,	-1,	-1,	-1,	45,	46,	10,	-1,	39,	24,	-1,	-1,	36,	58,	5,	-1,	27,	9,	-1,	25,	-1,	-1,	48,	-1,	-1,	20,	42,	-1,	-1,	-1,	-1,	28,	-1|
23,	-1,	-1,	-1,	-1,	35,	55,	60,	33,	-1,	-1,	39,	9,	-1,	58,	1,	11,	48,	-1,	-1,	50,	-1,	5,	-1,	53,	59,	-1,	-1,	-1,	-1,	-1,	-1,	49,	-1,	7,	3,	64,	63,	56,	8,	-1,	-1,	16,	-1,	-1,	-1,	21,	-1,	-1,	-1,	57,	-1,	14,	-1,	44,	27,	52,	32,	37,	19,	-1,	10,	-1,	47|
-1,	-1,	-1,	-1,	-1,	-1,	-1,	-1,	-1,	-1,	-1,	51,	-1,	6,	-1,	41,	30,	12,	-1,	58,	-1,	56,	-1,	61,	-1,	-1,	37,	17,	28,	-1,	-1,	-1,	-1,	50,	55,	26,	40,	-1,	-1,	-1,	47,	32,	33,	54,	-1,	31,	-1,	-1,	43,	-1,	-1,	-1,	-1,	-1,	38,	13,	16,	-1,	-1,	24,	18,	-1,	-1,	-1|
31,	46,	-1,	-1,	-1,	24,	59,	9,	-1,	61,	-1,	-1,	-1,	-1,	-1,	-1,	-1,	47,	28,	51,	-1,	35,	23,	10,	15,	11,	13,	4,	19,	-1,	-1,	32,	-1,	-1,	20,	-1,	-1,	22,	-1,	-1,	44,	7,	-1,	-1,	-1,	-1,	-1,	-1,	-1,	-1,	-1,	-1,	-1,	49,	5,	-1,	-1,	39,	-1,	-1,	-1,	-1,	1,	-1|
3,	-1,	-1,	1,	-1,	-1,	32,	-1,	29,	-1,	-1,	-1,	-1,	-1,	56,	-1,	-1,	-1,	-1,	-1,	37,	-1,	-1,	-1,	-1,	39,	-1,	22,	-1,	-1,	36,	-1,	16,	6,	19,	15,	41,	-1,	51,	17,	63,	-1,	49,	-1,	-1,	-1,	-1,	-1,	34,	-1,	-1,	26,	50,	-1,	28,	-1,	-1,	38,	-1,	46,	-1,	44,	40,	2|
-1,	-1,	26,	-1,	-1,	-1,	56,	28,	44,	-1,	15,	-1,	19,	-1,	-1,	13,	-1,	62,	-1,	-1,	63,	-1,	-1,	7,	-1,	49,	1,	58,	-1,	16,	-1,	-1,	-1,	47,	32,	-1,	-1,	-1,	-1,	-1,	-1,	12,	-1,	-1,	-1,	-1,	-1,	-1,	-1,	6,	-1,	-1,	-1,	-1,	-1,	-1,	-1,	-1,	33,	29,	14,	21,	-1,	-1|
-1,	-1,	-1,	53,	-1,	-1,	62,	-1,	52,	-1,	10,	25,	-1,	-1,	22,	-1,	-1,	-1,	-1,	45,	-1,	49,	-1,	-1,	20,	48,	-1,	-1,	60,	2,	-1,	-1,	18,	14,	58,	-1,	-1,	4,	21,	29,	39,	1,	57,	-1,	3,	59,	-1,	-1,	31,	47,	46,	24,	32,	-1,	16,	-1,	54,	51,	56,	-1,	64,	-1,	-1,	-1|
-1,	-1,	54,	20,	5,	39,	-1,	50,	-1,	26,	28,	-1,	43,	-1,	-1,	-1,	17,	-1,	41,	-1,	-1,	32,	-1,	53,	-1,	30,	-1,	47,	21,	-1,	-1,	7,	-1,	-1,	24,	-1,	-1,	-1,	44,	-1,	14,	-1,	-1,	-1,	-1,	60,	13,	-1,	58,	-1,	-1,	61,	-1,	10,	33,	-1,	48,	45,	-1,	-1,	62,	-1,	59,	-1|
-1,	-1,	-1,	-1,	-1,	-1,	-1,	-1,	-1,	34,	25,	26,	6,	-1,	-1,	51,	-1,	-1,	58,	-1,	-1,	-1,	-1,	-1,	-1,	-1,	-1,	-1,	17,	24,	-1,	-1,	-1,	-1,	15,	44,	-1,	20,	61,	-1,	-1,	-1,	-1,	-1,	30,	-1,	-1,	5,	-1,	-1,	4,	62,	1,	-1,	-1,	-1,	-1,	-1,	-1,	22,	-1,	-1,	-1,	-1|
21,	-1,	-1,	-1,	40,	-1,	-1,	-1,	-1,	-1,	-1,	-1,	3,	-1,	-1,	-1,	43,	-1,	-1,	-1,	53,	-1,	-1,	59,	30,	37,	10,	-1,	62,	-1,	-1,	1,	-1,	-1,	-1,	47,	6,	-1,	57,	-1,	-1,	50,	-1,	-1,	2,	-1,	-1,	-1,	16,	-1,	44,	12,	-1,	-1,	-1,	26,	29,	33,	14,	-1,	-1,	42,	-1,	13|
-1,	-1,	-1,	9,	63,	23,	-1,	33,	-1,	48,	-1,	-1,	57,	-1,	-1,	-1,	-1,	54,	-1,	31,	61,	42,	-1,	-1,	-1,	-1,	8,	-1,	40,	39,	-1,	-1,	-1,	24,	16,	-1,	22,	27,	-1,	46,	59,	-1,	-1,	25,	60,	-1,	-1,	26,	6,	-1,	41,	-1,	2,	-1,	-1,	-1,	-1,	15,	-1,	-1,	4,	-1,	30,	49|
-1,	29,	59,	-1,	6,	-1,	-1,	37,	-1,	-1,	14,	-1,	21,	-1,	-1,	-1,	-1,	-1,	35,	-1,	56,	-1,	4,	-1,	23,	-1,	-1,	-1,	-1,	46,	-1,	11,	-1,	-1,	-1,	-1,	-1,	39,	50,	-1,	16,	57,	-1,	27,	-1,	-1,	-1,	-1,	-1,	43,	-1,	28,	25,	33,	-1,	-1,	-1,	-1,	19,	-1,	-1,	7,	-1,	-1|
-1,	-1,	25,	47,	28,	-1,	3,	-1,	-1,	-1,	-1,	-1,	-1,	-1,	-1,	43,	-1,	-1,	60,	-1,	6,	-1,	-1,	12,	-1,	22,	-1,	2,	-1,	-1,	-1,	-1,	-1,	-1,	-1,	48,	-1,	64,	-1,	19,	46,	-1,	35,	-1,	31,	-1,	1,	51,	-1,	-1,	38,	18,	-1,	-1,	-1,	50,	-1,	59,	-1,	-1,	-1,	52,	11,	39|
-1,	13,	-1,	4,	-1,	-1,	-1,	20,	-1,	-1,	16,	61,	-1,	58,	-1,	-1,	36,	-1,	33,	-1,	47,	-1,	63,	24,	-1,	-1,	44,	38,	57,	3,	-1,	19,	35,	59,	-1,	23,	-1,	-1,	37,	43,	-1,	-1,	-1,	42,	-1,	-1,	18,	-1,	-1,	15,	-1,	-1,	56,	-1,	27,	-1,	-1,	-1,	-1,	-1,	-1,	6,	5,	17|
-1,	1,	-1,	-1,	-1,	48,	-1,	-1,	24,	-1,	-1,	-1,	-1,	22,	40,	-1,	62,	-1,	-1,	39,	23,	-1,	-1,	-1,	-1,	33,	-1,	-1,	16,	50,	-1,	6,	63,	25,	-1,	-1,	-1,	-1,	-1,	9,	-1,	11,	36,	4,	21,	-1,	-1,	-1,	-1,	32,	60,	-1,	-1,	-1,	-1,	31,	28,	37,	18,	-1,	-1,	12,	-1,	-1|
-1,	26,	44,	42,	64,	50,	-1,	-1,	23,	1,	11,	-1,	56,	17,	-1,	60,	29,	10,	32,	-1,	-1,	-1,	-1,	37,	-1,	-1,	-1,	54,	-1,	-1,	-1,	-1,	-1,	-1,	12,	31,	2,	-1,	18,	4,	6,	-1,	-1,	-1,	-1,	62,	22,	-1,	-1,	-1,	-1,	8,	20,	-1,	-1,	5,	-1,	-1,	38,	-1,	34,	-1,	16,	-1|
-1,	41,	-1,	-1,	53,	-1,	-1,	-1,	56,	-1,	-1,	-1,	-1,	-1,	16,	-1,	57,	-1,	14,	-1,	-1,	-1,	33,	-1,	-1,	55,	25,	-1,	-1,	-1,	-1,	9,	-1,	-1,	-1,	-1,	-1,	2,	-1,	-1,	-1,	-1,	34,	-1,	36,	-1,	-1,	-1,	-1,	-1,	-1,	7,	-1,	30,	4,	44,	23,	-1,	-1,	-1,	8,	18,	15,	-1|
-1,	-1,	14,	-1,	-1,	18,	-1,	-1,	58,	28,	2,	-1,	17,	-1,	12,	-1,	8,	44,	-1,	-1,	7,	-1,	30,	-1,	-1,	27,	-1,	39,	43,	-1,	-1,	-1,	-1,	-1,	-1,	-1,	-1,	-1,	53,	-1,	50,	61,	-1,	-1,	11,	-1,	-1,	-1,	51,	13,	-1,	19,	36,	-1,	-1,	46,	3,	-1,	45,	-1,	-1,	-1,	-1,	33|
-1,	37,	-1,	-1,	-1,	-1,	42,	12,	21,	39,	51,	-1,	34,	54,	-1,	10,	49,	-1,	45,	-1,	-1,	-1,	-1,	-1,	-1,	-1,	7,	11,	53,	23,	26,	18,	-1,	64,	8,	-1,	-1,	-1,	-1,	-1,	-1,	-1,	-1,	-1,	59,	-1,	-1,	31,	-1,	-1,	-1,	35,	-1,	32,	-1,	-1,	41,	-1,	-1,	-1,	22,	28,	58,	-1|
-1,	-1,	-1,	-1,	-1,	-1,	-1,	32,	5,	-1,	35,	23,	-1,	-1,	-1,	44,	53,	-1,	-1,	-1,	-1,	21,	12,	-1,	-1,	-1,	31,	19,	-1,	-1,	-1,	-1,	-1,	-1,	43,	-1,	-1,	-1,	41,	1,	-1,	-1,	-1,	-1,	4,	-1,	40,	-1,	-1,	34,	-1,	-1,	60,	-1,	-1,	39,	-1,	-1,	36,	-1,	-1,	-1,	-1,	37|
-1,	40,	-1,	-1,	20,	-1,	23,	13,	-1,	-1,	-1,	-1,	29,	11,	55,	-1,	-1,	-1,	-1,	42,	35,	52,	-1,	-1,	-1,	8,	-1,	36,	-1,	33,	41,	-1,	-1,	28,	18,	-1,	59,	62,	-1,	-1,	-1,	-1,	-1,	-1,	-1,	2,	32,	47,	-1,	-1,	24,	-1,	-1,	-1,	-1,	56,	-1,	-1,	-1,	-1,	-1,	50,	63,	7|
62,	35,	28,	27,	-1,	11,	57,	-1,	-1,	-1,	36,	14,	-1,	9,	-1,	33,	-1,	56,	5,	59,	-1,	58,	2,	-1,	-1,	-1,	20,	46,	-1,	-1,	-1,	12,	25,	49,	50,	19,	-1,	31,	-1,	-1,	29,	18,	-1,	-1,	7,	-1,	17,	54,	-1,	1,	43,	-1,	22,	41,	-1,	-1,	-1,	-1,	61,	-1,	55,	40,	32,	-1|
-1,	50,	-1,	49,	25,	-1,	-1,	-1,	40,	53,	-1,	8,	-1,	-1,	7,	18,	6,	-1,	-1,	-1,	43,	-1,	-1,	-1,	5,	-1,	28,	61,	-1,	-1,	-1,	22,	-1,	56,	-1,	30,	51,	-1,	-1,	-1,	64,	-1,	-1,	-1,	-1,	-1,	38,	35,	-1,	-1,	-1,	-1,	-1,	-1,	45,	2,	-1,	47,	-1,	-1,	-1,	19,	17,	-1|
-1,	-1,	-1,	17,	-1,	-1,	-1,	1,	31,	-1,	-1,	-1,	-1,	-1,	3,	-1,	19,	-1,	-1,	13,	-1,	-1,	-1,	4,	-1,	-1,	-1,	56,	-1,	44,	48,	-1,	-1,	-1,	40,	-1,	-1,	-1,	22,	-1,	25,	-1,	-1,	-1,	-1,	43,	42,	-1,	-1,	-1,	-1,	27,	12,	-1,	59,	64,	-1,	35,	49,	34,	-1,	-1,	29,	51|
43,	3,	-1,	63,	62,	-1,	13,	57,	-1,	58,	42,	-1,	-1,	-1,	-1,	59,	-1,	-1,	11,	-1,	-1,	-1,	16,	19,	-1,	44,	27,	-1,	15,	-1,	-1,	45,	-1,	46,	-1,	-1,	8,	-1,	40,	31,	48,	-1,	17,	-1,	28,	18,	-1,	-1,	56,	-1,	12,	-1,	-1,	-1,	36,	61,	26,	-1,	4,	-1,	37,	-1,	52,	54|
46,	-1,	36,	18,	-1,	-1,	-1,	-1,	17,	47,	6,	29,	-1,	48,	62,	-1,	56,	-1,	-1,	-1,	38,	43,	21,	-1,	-1,	-1,	49,	23,	26,	-1,	-1,	-1,	-1,	55,	44,	-1,	-1,	-1,	-1,	-1,	40,	-1,	-1,	61,	-1,	15,	10,	1,	-1,	63,	-1,	-1,	13,	-1,	-1,	8,	32,	-1,	-1,	35,	25,	-1,	-1,	59|
-1,	19,	-1,	8,	-1,	7,	-1,	-1,	-1,	13,	38,	12,	45,	3,	-1,	-1,	-1,	51,	-1,	-1,	-1,	47,	40,	-1,	55,	-1,	43,	-1,	56,	-1,	-1,	42,	-1,	15,	17,	27,	-1,	-1,	16,	-1,	23,	-1,	-1,	31,	-1,	14,	-1,	58,	1,	26,	-1,	9,	-1,	-1,	50,	24,	-1,	-1,	39,	6,	-1,	-1,	34,	-1|
-1,	48,	1,	6,	-1,	15,	20,	-1,	16,	-1,	-1,	-1,	-1,	-1,	-1,	-1,	-1,	3,	-1,	-1,	-1,	-1,	-1,	-1,	-1,	-1,	17,	-1,	35,	38,	-1,	-1,	-1,	39,	52,	60,	-1,	-1,	-1,	-1,	57,	-1,	-1,	5,	9,	-1,	-1,	-1,	25,	27,	42,	21,	-1,	44,	62,	-1,	47,	2,	-1,	28,	-1,	-1,	10,	-1|
27,	5,	-1,	32,	-1,	29,	-1,	34,	-1,	-1,	-1,	-1,	28,	-1,	-1,	9,	-1,	-1,	-1,	60,	62,	15,	-1,	-1,	1,	-1,	-1,	-1,	-1,	7,	-1,	-1,	-1,	57,	-1,	-1,	-1,	42,	-1,	20,	-1,	4,	-1,	-1,	-1,	-1,	-1,	-1,	-1,	-1,	30,	-1,	-1,	-1,	-1,	43,	-1,	18,	51,	-1,	-1,	-1,	-1,	-1|
-1,	22,	40,	-1,	-1,	-1,	31,	-1,	-1,	-1,	-1,	37,	63,	4,	60,	-1,	-1,	-1,	44,	34,	33,	-1,	58,	-1,	-1,	-1,	-1,	-1,	-1,	-1,	-1,	62,	-1,	-1,	48,	38,	-1,	-1,	1,	2,	-1,	36,	-1,	-1,	52,	-1,	-1,	41,	7,	-1,	-1,	-1,	-1,	-1,	-1,	28,	-1,	-1,	-1,	-1,	-1,	29,	9,	-1|
2,	-1,	-1,	-1,	61,	-1,	-1,	-1,	-1,	-1,	-1,	-1,	53,	10,	-1,	-1,	-1,	-1,	-1,	-1,	-1,	-1,	-1,	-1,	-1,	-1,	-1,	24,	-1,	40,	-1,	39,	-1,	-1,	-1,	56,	23,	49,	-1,	-1,	-1,	46,	-1,	21,	12,	-1,	51,	33,	-1,	-1,	-1,	32,	57,	14,	-1,	-1,	-1,	-1,	-1,	-1,	60,	-1,	-1,	-1|
-1,	53,	-1,	-1,	-1,	41,	-1,	-1,	26,	-1,	27,	-1,	-1,	-1,	18,	-1,	-1,	-1,	-1,	17,	-1,	-1,	32,	-1,	60,	-1,	-1,	-1,	48,	31,	-1,	46,	50,	-1,	33,	-1,	-1,	-1,	64,	22,	45,	-1,	-1,	44,	-1,	25,	55,	-1,	4,	-1,	-1,	-1,	-1,	16,	-1,	-1,	-1,	14,	-1,	-1,	-1,	-1,	-1,	-1|
38,	-1,	-1,	12,	-1,	-1,	41,	-1,	-1,	-1,	-1,	-1,	-1,	-1,	17,	64,	47,	-1,	-1,	21,	-1,	-1,	-1,	5,	-1,	-1,	-1,	-1,	36,	45,	-1,	52,	-1,	-1,	-1,	-1,	-1,	-1,	48,	35,	-1,	-1,	50,	-1,	-1,	30,	57,	16,	-1,	-1,	-1,	-1,	63,	-1,	22,	6,	-1,	-1,	-1,	-1,	15,	-1,	44,	-1|
-1,	-1,	-1,	-1,	9,	-1,	-1,	-1,	-1,	-1,	26,	42,	-1,	-1,	-1,	29,	-1,	-1,	-1,	32,	-1,	23,	1,	-1,	6,	-1,	60,	5,	-1,	-1,	-1,	37,	-1,	-1,	-1,	-1,	-1,	-1,	-1,	-1,	-1,	52,	-1,	-1,	-1,	11,	34,	-1,	41,	24,	-1,	64,	38,	-1,	43,	-1,	36,	7,	-1,	-1,	12,	48,	-1,	-1|
-1,	-1,	50,	-1,	-1,	26,	1,	-1,	-1,	-1,	-1,	16,	-1,	56,	-1,	-1,	-1,	60,	-1,	-1,	-1,	-1,	-1,	-1,	61,	42,	-1,	14,	24,	-1,	39,	-1,	-1,	37,	-1,	-1,	34,	53,	28,	-1,	4,	31,	-1,	-1,	-1,	-1,	-1,	-1,	-1,	-1,	-1,	-1,	15,	7,	35,	19,	-1,	41,	2,	-1,	59,	-1,	-1,	-1|
-1,	-1,	-1,	-1,	-1,	-1,	8,	-1,	19,	11,	-1,	-1,	41,	-1,	-1,	-1,	27,	-1,	38,	2,	36,	-1,	44,	6,	-1,	12,	-1,	-1,	4,	22,	-1,	-1,	-1,	20,	-1,	63,	-1,	-1,	-1,	-1,	1,	37,	-1,	-1,	-1,	9,	58,	55,	45,	-1,	56,	60,	-1,	-1,	-1,	23,	-1,	-1,	10,	26,	-1,	54,	42,	-1|
-1,	-1,	-1,	31,	55,	-1,	6,	-1,	-1,	-1,	9,	-1,	-1,	-1,	61,	-1,	-1,	-1,	57,	52,	59,	-1,	-1,	-1,	-1,	20,	48,	64,	-1,	51,	11,	-1,	17,	-1,	1,	-1,	3,	-1,	-1,	10,	54,	19,	-1,	-1,	15,	-1,	23,	-1,	12,	-1,	-1,	33,	-1,	-1,	-1,	-1,	-1,	24,	46,	-1,	49,	-1,	38,	-1|
-1,	-1,	-1,	15,	57,	27,	-1,	-1,	-1,	46,	58,	-1,	4,	60,	-1,	-1,	-1,	-1,	43,	-1,	3,	-1,	-1,	28,	13,	-1,	-1,	-1,	47,	26,	54,	63,	-1,	-1,	49,	-1,	-1,	44,	-1,	51,	18,	-1,	-1,	-1,	24,	-1,	-1,	-1,	-1,	20,	53,	-1,	-1,	-1,	-1,	-1,	-1,	25,	-1,	-1,	-1,	22,	37,	-1|
-1,	-1,	-1,	-1,	-1,	-1,	11,	-1,	15,	30,	-1,	31,	-1,	-1,	8,	-1,	7,	63,	-1,	-1,	12,	51,	49,	-1,	-1,	-1,	-1,	-1,	-1,	-1,	-1,	-1,	43,	-1,	56,	-1,	-1,	-1,	36,	13,	33,	-1,	27,	-1,	-1,	38,	-1,	53,	42,	16,	-1,	25,	9,	-1,	-1,	-1,	40,	28,	-1,	-1,	23,	4,	-1,	-1|
-1,	-1,	30,	-1,	-1,	-1,	-1,	-1,	-1,	-1,	33,	-1,	-1,	-1,	-1,	22,	42,	4,	-1,	18,	14,	-1,	-1,	11,	-1,	-1,	38,	27,	41,	-1,	-1,	-1,	-1,	-1,	2,	59,	45,	19,	-1,	-1,	-1,	-1,	25,	7,	-1,	28,	3,	-1,	26,	-1,	-1,	-1,	-1,	-1,	61,	-1,	-1,	-1,	31,	39,	-1,	-1,	47,	-1|
63,	17,	23,	-1,	1,	-1,	47,	3,	-1,	6,	-1,	-1,	18,	-1,	25,	-1,	39,	58,	-1,	40,	42,	41,	-1,	-1,	-1,	-1,	-1,	16,	-1,	-1,	-1,	-1,	52,	44,	-1,	-1,	27,	51,	-1,	64,	-1,	-1,	20,	9,	-1,	-1,	-1,	61,	-1,	-1,	-1,	-1,	-1,	56,	15,	55,	31,	-1,	62,	-1,	-1,	-1,	49,	-1|
-1,	-1,	58,	55,	8,	-1,	-1,	-1,	-1,	-1,	31,	44,	-1,	15,	51,	-1,	-1,	-1,	30,	29,	-1,	-1,	-1,	-1,	-1,	17,	2,	-1,	34,	-1,	-1,	-1,	-1,	38,	-1,	61,	28,	48,	20,	-1,	-1,	-1,	39,	-1,	10,	1,	-1,	-1,	-1,	-1,	27,	-1,	-1,	60,	-1,	-1,	-1,	-1,	-1,	-1,	-1,	37,	-1,	-1|
-1,	-1,	48,	54,	-1,	12,	35,	-1,	-1,	-1,	-1,	-1,	13,	-1,	45,	28,	-1,	-1,	8,	27,	-1,	-1,	-1,	-1,	-1,	-1,	21,	20,	18,	-1,	-1,	-1,	19,	36,	10,	-1,	58,	40,	33,	53,	-1,	-1,	-1,	-1,	22,	-1,	-1,	60,	-1,	64,	23,	-1,	47,	-1,	-1,	-1,	61,	50,	-1,	4,	-1,	-1,	-1,	9|
-1,	64,	-1,	22,	39,	-1,	46,	-1,	-1,	5,	-1,	-1,	40,	59,	43,	-1,	-1,	38,	-1,	37,	-1,	44,	-1,	-1,	49,	-1,	45,	-1,	8,	53,	61,	36,	62,	-1,	57,	-1,	47,	-1,	-1,	-1,	-1,	-1,	-1,	-1,	27,	24,	30,	-1,	-1,	29,	9,	51,	-1,	-1,	26,	33,	11,	6,	42,	-1,	-1,	14,	48,	16|
-1,	-1,	24,	52,	-1,	33,	10,	16,	-1,	64,	61,	60,	-1,	37,	23,	-1,	45,	-1,	-1,	36,	51,	-1,	-1,	-1,	12,	41,	47,	-1,	-1,	-1,	-1,	3,	-1,	2,	-1,	-1,	-1,	32,	-1,	25,	58,	-1,	-1,	-1,	-1,	-1,	59,	-1,	30,	-1,	20,	-1,	7,	-1,	57,	42,	-1,	21,	29,	-1,	38,	-1,	-1,	28|
37,	42,	-1,	61,	-1,	32,	19,	25,	-1,	-1,	-1,	57,	-1,	-1,	26,	38,	-1,	-1,	-1,	5,	-1,	33,	-1,	18,	-1,	-1,	-1,	-1,	-1,	27,	10,	-1,	30,	-1,	-1,	-1,	-1,	-1,	63,	-1,	-1,	-1,	56,	11,	-1,	-1,	-1,	-1,	-1,	28,	52,	-1,	34,	-1,	-1,	3,	58,	-1,	-1,	-1,	-1,	-1,	12,	-1|
-1,	-1,	-1,	-1,	-1,	36,	-1,	27,	-1,	-1,	-1,	-1,	14,	-1,	-1,	47,	-1,	-1,	12,	62,	-1,	53,	-1,	-1,	-1,	-1,	-1,	-1,	-1,	58,	-1,	-1,	-1,	43,	59,	42,	-1,	-1,	-1,	-1,	55,	-1,	21,	-1,	-1,	-1,	-1,	-1,	-1,	-1,	-1,	-1,	44,	-1,	-1,	-1,	-1,	-1,	-1,	-1,	-1,	-1,	-1,	26|
-1,	49,	-1,	34,	50,	-1,	18,	51,	-1,	27,	-1,	-1,	2,	53,	-1,	-1,	23,	61,	9,	-1,	-1,	-1,	-1,	26,	-1,	-1,	-1,	40,	-1,	-1,	57,	48,	1,	29,	-1,	-1,	-1,	-1,	-1,	15,	12,	38,	-1,	32,	43,	-1,	-1,	-1,	-1,	-1,	-1,	4,	17,	63,	39,	-1,	-1,	-1,	59,	47,	-1,	-1,	-1,	-1|];
