sudoku-ls/benchmarks_LEQ/INST_64x64/40/inst64x64_40_9.txt
8
1
59	23	-1	19	15	-1	-1	29	-1	49	-1	-1	31	-1	-1	-1	28	-1	-1	22	-1	-1	-1	-1	25	-1	-1	-1	-1	-1	4	5	-1	-1	-1	2	56	-1	-1	-1	8	34	-1	16	-1	-1	9	-1	-1	50	-1	47	41	-1	24	1	-1	43	-1	51	-1	-1	21	-1
54	60	-1	-1	-1	-1	-1	-1	22	-1	39	36	-1	-1	4	7	32	-1	-1	16	-1	-1	62	-1	-1	-1	63	-1	-1	-1	-1	55	-1	-1	-1	-1	33	-1	-1	-1	-1	28	-1	-1	-1	-1	-1	-1	44	49	-1	56	-1	57	-1	-1	-1	61	-1	45	-1	38	13	25
-1	28	8	-1	-1	58	-1	11	3	32	-1	-1	-1	-1	42	16	-1	55	-1	43	-1	17	-1	15	9	34	52	-1	-1	-1	21	26	60	19	22	13	-1	61	-1	23	-1	48	4	24	1	12	31	-1	-1	62	-1	-1	29	-1	2	63	-1	-1	-1	-1	-1	-1	41	64
1	-1	-1	16	56	-1	-1	-1	6	-1	47	-1	-1	-1	13	-1	-1	9	-1	23	-1	-1	-1	-1	-1	45	22	-1	-1	-1	49	57	34	10	-1	-1	-1	-1	43	28	42	27	60	15	-1	-1	-1	7	33	17	8	-1	-1	-1	-1	-1	59	-1	24	11	-1	-1	35	-1
-1	4	-1	30	-1	-1	-1	47	12	55	60	9	8	-1	5	-1	-1	52	-1	-1	-1	-1	-1	35	54	46	-1	-1	13	41	-1	-1	31	-1	-1	-1	32	18	-1	-1	21	-1	-1	-1	37	-1	-1	-1	23	-1	-1	-1	16	42	34	45	22	-1	28	-1	-1	-1	53	-1
7	-1	-1	-1	3	-1	50	5	28	-1	-1	-1	23	-1	46	35	-1	-1	-1	14	-1	59	54	38	8	56	-1	-1	-1	30	53	-1	-1	-1	-1	-1	17	-1	4	-1	32	55	-1	-1	-1	26	11	-1	-1	-1	-1	22	39	43	-1	-1	-1	-1	-1	31	-1	-1	-1	-1
-1	-1	-1	-1	-1	22	49	-1	-1	-1	56	50	11	-1	34	-1	-1	-1	-1	-1	-1	-1	-1	64	3	-1	-1	-1	-1	-1	-1	-1	-1	-1	-1	-1	-1	57	-1	-1	-1	59	-1	-1	-1	58	-1	63	-1	31	19	-1	-1	-1	-1	-1	14	-1	8	55	36	47	-1	4
32	2	-1	26	-1	-1	21	-1	-1	-1	59	19	38	-1	-1	-1	-1	37	34	33	-1	-1	-1	-1	-1	-1	40	1	-1	17	-1	-1	-1	48	-1	-1	-1	-1	-1	-1	-1	-1	-1	20	-1	22	-1	18	35	-1	-1	-1	55	25	-1	-1	-1	63	44	9	42	16	-1	-1
-1	-1	42	-1	-1	-1	-1	-1	-1	-1	64	45	61	-1	-1	-1	-1	26	51	-1	-1	28	-1	32	-1	36	-1	41	54	-1	-1	59	3	18	34	-1	60	-1	-1	7	-1	21	-1	47	19	52	27	50	-1	30	16	55	-1	-1	25	-1	-1	17	-1	10	33	-1	4	-1
-1	-1	-1	56	13	2	-1	-1	-1	-1	-1	-1	-1	-1	28	-1	-1	-1	62	47	41	20	59	-1	11	-1	-1	-1	58	8	27	-1	-1	51	38	-1	-1	-1	-1	-1	-1	-1	-1	33	23	-1	14	-1	-1	-1	-1	39	53	-1	-1	52	-1	9	16	-1	-1	-1	6	46
-1	-1	-1	-1	49	-1	-1	35	37	-1	-1	-1	7	51	-1	-1	-1	-1	-1	-1	22	-1	-1	-1	-1	-1	39	-1	46	-1	55	-1	2	4	-1	-1	-1	-1	-1	-1	17	-1	58	59	-1	36	15	25	-1	44	3	-1	8	-1	-1	-1	12	53	-1	57	-1	20	-1	-1
12	-1	-1	-1	-1	3	-1	-1	-1	-1	50	-1	35	-1	6	54	-1	-1	-1	63	27	-1	8	9	-1	40	34	45	2	10	1	-1	-1	-1	23	17	-1	-1	-1	-1	-1	-1	-1	-1	18	32	26	43	-1	-1	-1	-1	61	-1	-1	-1	-1	-1	-1	64	-1	-1	-1	-1
-1	-1	-1	33	-1	-1	-1	62	-1	-1	-1	-1	52	19	-1	40	-1	46	36	-1	-1	7	17	21	-1	-1	16	-1	20	-1	50	-1	57	54	-1	64	-1	-1	25	-1	-1	-1	10	1	-1	-1	-1	-1	-1	11	-1	-1	-1	-1	23	59	39	-1	47	-1	28	-1	-1	-1
10	-1	-1	-1	-1	-1	53	-1	-1	38	5	46	-1	-1	-1	57	-1	45	-1	-1	44	-1	56	-1	42	-1	51	-1	-1	28	-1	-1	-1	-1	63	-1	-1	26	-1	-1	-1	-1	54	-1	-1	35	-1	24	-1	-1	-1	-1	4	-1	-1	-1	-1	-1	40	37	-1	-1	43	-1
40	31	-1	-1	36	59	30	41	-1	8	-1	-1	15	-1	-1	62	-1	11	-1	-1	-1	38	29	-1	17	5	-1	-1	14	56	3	-1	48	-1	-1	-1	16	-1	-1	-1	-1	-1	28	6	-1	-1	-1	64	-1	7	50	58	-1	27	12	-1	-1	52	-1	18	63	-1	-1	-1
-1	45	-1	50	-1	-1	-1	14	39	-1	-1	-1	-1	20	31	-1	58	-1	-1	12	48	-1	-1	-1	-1	25	-1	60	-1	-1	62	-1	-1	-1	-1	11	43	-1	59	21	-1	51	7	-1	-1	-1	-1	-1	-1	10	-1	57	-1	2	-1	17	-1	29	15	-1	30	-1	-1	-1
22	-1	-1	-1	-1	47	-1	-1	18	-1	-1	35	-1	32	49	-1	-1	29	-1	6	16	-1	13	-1	33	14	-1	57	51	55	-1	-1	38	-1	-1	45	-1	10	23	-1	24	-1	-1	-1	58	5	43	-1	-1	56	-1	17	-1	-1	-1	-1	20	-1	-1	-1	-1	63	28	-1
-1	-1	-1	-1	41	35	-1	-1	-1	-1	-1	39	-1	-1	58	-1	-1	48	42	4	-1	-1	5	-1	-1	-1	-1	43	-1	54	18	25	-1	34	-1	3	-1	63	56	-1	-1	-1	-1	-1	38	45	21	-1	-1	-1	-1	-1	-1	-1	-1	27	52	-1	-1	19	61	-1	22	47
29	-1	-1	-1	52	57	-1	-1	63	-1	-1	-1	-1	6	-1	41	-1	-1	-1	-1	-1	56	-1	-1	-1	-1	37	17	-1	9	44	-1	59	-1	-1	-1	-1	5	42	-1	-1	32	-1	-1	-1	-1	-1	62	-1	-1	7	-1	-1	39	-1	13	16	-1	53	-1	-1	-1	3	15
31	46	-1	38	-1	-1	-1	-1	-1	61	45	62	-1	8	53	3	14	-1	28	-1	21	-1	23	-1	15	11	-1	4	-1	-1	12	32	-1	-1	-1	43	-1	-1	-1	-1	-1	7	26	-1	-1	50	-1	-1	-1	60	-1	-1	-1	-1	5	18	27	-1	25	-1	6	-1	-1	-1
-1	21	-1	1	12	-1	-1	48	29	-1	55	47	24	30	-1	11	-1	18	31	-1	37	25	43	60	52	-1	-1	22	-1	-1	36	-1	-1	6	19	15	-1	-1	51	-1	63	-1	-1	-1	-1	-1	4	-1	-1	-1	-1	-1	-1	-1	28	53	-1	38	-1	46	-1	44	40	2
-1	25	26	11	-1	4	-1	28	-1	17	15	-1	-1	-1	59	13	64	62	24	55	-1	-1	-1	-1	45	-1	-1	58	-1	-1	-1	-1	37	47	-1	-1	-1	-1	-1	27	-1	12	9	46	-1	-1	-1	22	-1	-1	-1	-1	54	-1	-1	-1	-1	36	-1	29	14	-1	-1	-1
-1	36	-1	53	30	17	-1	43	52	-1	-1	-1	-1	-1	22	-1	38	15	-1	-1	-1	-1	-1	8	20	-1	-1	-1	-1	-1	-1	34	-1	14	-1	-1	-1	-1	21	-1	-1	-1	-1	-1	-1	-1	-1	-1	-1	47	46	-1	32	-1	-1	35	-1	-1	56	12	64	-1	-1	-1
64	-1	54	-1	-1	-1	63	50	42	-1	-1	2	43	-1	37	-1	17	22	41	-1	52	32	27	53	38	-1	-1	47	-1	6	56	-1	-1	-1	-1	25	-1	-1	-1	12	14	-1	-1	-1	-1	-1	13	-1	58	-1	15	-1	-1	-1	-1	4	48	-1	-1	-1	-1	23	59	35
-1	-1	56	-1	-1	-1	-1	-1	47	34	-1	-1	6	-1	-1	-1	-1	7	58	50	-1	-1	-1	-1	-1	21	12	48	17	24	13	53	-1	-1	-1	-1	54	-1	-1	32	-1	-1	-1	-1	30	29	28	-1	39	-1	4	-1	-1	59	-1	-1	-1	60	-1	22	10	-1	45	31
-1	-1	46	-1	40	-1	-1	-1	49	31	-1	54	-1	5	-1	-1	-1	64	-1	-1	-1	-1	-1	59	30	-1	-1	-1	-1	4	20	1	-1	-1	-1	47	6	58	-1	-1	38	50	-1	-1	2	-1	-1	9	-1	-1	-1	-1	-1	34	19	-1	-1	-1	-1	-1	-1	-1	-1	-1
5	-1	51	-1	-1	-1	12	33	-1	-1	-1	-1	57	-1	-1	-1	-1	54	-1	-1	61	42	-1	-1	34	43	8	-1	-1	-1	-1	29	56	24	-1	7	-1	27	10	46	59	-1	3	-1	-1	-1	-1	26	-1	-1	41	14	2	-1	-1	11	62	15	1	53	4	35	30	49
-1	29	-1	-1	-1	31	-1	-1	38	-1	-1	-1	21	-1	-1	12	-1	-1	-1	26	56	45	-1	-1	-1	-1	-1	-1	-1	-1	-1	11	8	13	3	36	-1	-1	-1	-1	16	-1	-1	27	-1	-1	-1	-1	54	-1	-1	28	25	-1	-1	-1	2	20	-1	-1	-1	-1	-1	-1
17	-1	25	47	-1	-1	-1	-1	-1	-1	29	-1	-1	7	15	43	16	-1	-1	30	6	27	-1	-1	36	22	-1	2	-1	-1	-1	41	40	-1	-1	-1	62	-1	-1	19	46	-1	-1	23	31	-1	-1	51	63	-1	38	-1	-1	-1	-1	50	-1	-1	32	-1	-1	52	-1	39
60	-1	45	-1	-1	53	22	20	62	9	16	-1	-1	-1	-1	8	-1	49	-1	-1	47	55	63	-1	-1	-1	44	38	-1	-1	14	19	35	-1	28	-1	-1	21	37	43	-1	-1	12	-1	39	7	18	52	-1	-1	10	-1	56	-1	-1	-1	25	-1	-1	-1	-1	-1	-1	17
55	-1	57	43	2	48	15	-1	24	-1	53	-1	30	-1	-1	27	-1	-1	20	39	-1	-1	-1	-1	-1	33	-1	-1	-1	-1	-1	-1	-1	25	45	-1	-1	-1	-1	-1	19	11	-1	-1	21	-1	-1	-1	47	-1	-1	42	-1	-1	7	31	28	37	-1	-1	-1	-1	51	56
30	-1	-1	-1	-1	-1	-1	36	-1	-1	11	-1	56	-1	35	60	-1	-1	-1	28	-1	48	-1	-1	59	-1	-1	-1	-1	47	-1	61	-1	53	12	31	-1	-1	18	4	6	-1	-1	-1	-1	-1	22	14	-1	-1	45	-1	20	-1	9	5	-1	-1	38	-1	-1	43	-1	27
19	-1	-1	-1	-1	-1	-1	22	-1	59	13	-1	1	-1	16	24	57	-1	14	10	40	-1	-1	-1	-1	55	-1	-1	45	-1	-1	9	-1	35	-1	-1	-1	-1	-1	38	-1	-1	-1	-1	-1	-1	-1	-1	-1	52	-1	-1	-1	-1	4	44	-1	-1	-1	-1	-1	-1	15	-1
-1	-1	-1	-1	31	-1	34	6	-1	28	-1	-1	17	25	12	-1	8	44	-1	-1	-1	-1	-1	-1	-1	-1	-1	-1	43	-1	-1	24	4	-1	60	-1	-1	23	-1	-1	50	61	-1	-1	11	16	5	-1	-1	-1	-1	19	-1	-1	42	46	-1	-1	45	-1	56	-1	20	33
-1	37	2	-1	-1	30	42	12	21	39	-1	43	34	54	-1	-1	-1	-1	-1	38	20	62	-1	-1	4	47	-1	11	-1	-1	-1	-1	13	-1	8	-1	29	-1	-1	-1	-1	44	-1	-1	-1	-1	-1	-1	-1	33	-1	35	-1	32	-1	57	41	46	-1	-1	22	28	58	-1
56	15	-1	-1	33	-1	-1	-1	-1	-1	-1	23	-1	57	-1	-1	53	-1	64	-1	-1	-1	-1	16	62	-1	-1	-1	-1	63	-1	-1	14	-1	-1	6	-1	46	-1	1	22	-1	-1	10	-1	-1	-1	-1	3	34	-1	29	-1	-1	-1	-1	13	-1	-1	42	-1	2	54	-1
-1	-1	-1	64	20	-1	-1	13	61	-1	-1	-1	29	-1	-1	-1	48	-1	-1	42	35	-1	-1	-1	-1	-1	-1	36	-1	-1	41	51	15	-1	18	-1	-1	-1	-1	-1	-1	-1	19	-1	-1	-1	32	47	38	-1	-1	-1	-1	-1	-1	-1	-1	12	27	5	16	-1	63	7
-1	-1	-1	-1	10	-1	-1	-1	-1	-1	36	14	-1	9	-1	33	-1	56	-1	-1	-1	-1	-1	47	-1	-1	-1	-1	-1	-1	-1	-1	25	-1	50	19	21	-1	24	-1	29	-1	-1	-1	7	-1	-1	-1	53	1	-1	-1	22	41	-1	-1	-1	44	-1	-1	-1	-1	32	-1
58	-1	-1	-1	-1	-1	44	55	-1	53	-1	-1	-1	-1	7	-1	6	-1	-1	-1	43	60	36	46	-1	-1	28	-1	59	13	34	22	42	-1	-1	-1	51	12	27	48	-1	-1	-1	-1	33	-1	38	-1	37	21	-1	31	-1	15	45	-1	4	47	9	-1	-1	-1	17	-1
-1	-1	61	17	-1	-1	45	1	-1	-1	-1	-1	47	-1	-1	-1	19	23	-1	-1	28	-1	-1	4	-1	16	-1	56	-1	-1	-1	-1	-1	-1	-1	-1	7	-1	-1	-1	-1	8	55	-1	20	-1	42	-1	-1	9	-1	-1	-1	-1	-1	-1	53	-1	-1	34	-1	-1	-1	-1
43	-1	21	-1	62	-1	-1	57	-1	-1	42	33	-1	-1	-1	-1	20	53	-1	-1	-1	-1	-1	19	-1	-1	27	-1	-1	-1	-1	45	32	46	6	-1	-1	7	-1	-1	48	47	17	35	-1	-1	60	49	-1	-1	-1	-1	-1	-1	-1	-1	26	-1	-1	38	-1	-1	52	-1
-1	-1	36	-1	-1	-1	-1	-1	17	-1	-1	29	-1	48	62	-1	56	28	-1	7	38	43	21	42	-1	2	-1	23	-1	-1	-1	54	45	-1	44	4	19	-1	58	5	40	53	24	-1	-1	15	-1	-1	60	63	-1	-1	-1	-1	-1	-1	-1	-1	-1	-1	25	33	27	-1
-1	19	-1	8	-1	-1	37	30	2	-1	38	-1	45	3	44	-1	22	-1	-1	57	4	-1	-1	-1	-1	61	-1	-1	-1	20	-1	-1	-1	-1	-1	-1	25	59	-1	62	23	-1	-1	31	-1	-1	63	-1	1	-1	64	9	-1	35	-1	-1	46	-1	-1	-1	48	-1	-1	-1
-1	-1	-1	6	23	-1	-1	-1	-1	-1	8	-1	-1	31	32	-1	12	-1	-1	61	45	-1	-1	-1	-1	-1	17	-1	-1	38	-1	-1	51	-1	-1	-1	18	-1	-1	-1	-1	43	30	-1	9	-1	-1	59	-1	27	-1	21	-1	-1	-1	-1	-1	-1	64	28	-1	-1	10	-1
-1	5	10	32	-1	29	-1	34	35	36	-1	-1	-1	-1	-1	9	41	59	46	60	62	15	-1	63	1	-1	-1	8	-1	-1	-1	-1	-1	-1	-1	-1	-1	-1	47	-1	11	4	-1	-1	56	3	-1	39	-1	48	-1	-1	-1	-1	-1	-1	45	-1	-1	-1	31	-1	50	-1
-1	22	-1	-1	47	56	31	-1	-1	-1	24	-1	-1	4	60	-1	-1	-1	-1	-1	-1	8	58	-1	-1	-1	11	-1	12	-1	-1	62	-1	-1	-1	-1	-1	-1	1	-1	-1	-1	-1	-1	-1	27	64	-1	-1	-1	55	-1	45	-1	-1	28	-1	-1	17	-1	43	-1	-1	61
-1	-1	4	58	-1	-1	25	-1	-1	-1	1	-1	53	10	11	30	-1	-1	-1	-1	-1	18	31	48	-1	-1	-1	-1	-1	40	-1	-1	-1	-1	26	-1	-1	-1	-1	-1	-1	-1	-1	-1	12	37	51	33	-1	38	-1	32	57	14	-1	-1	-1	62	-1	-1	-1	3	-1	-1
-1	53	39	-1	54	-1	-1	-1	-1	19	-1	-1	-1	-1	-1	-1	9	6	23	-1	-1	-1	-1	1	-1	-1	36	29	48	-1	-1	-1	-1	-1	-1	-1	-1	43	64	-1	-1	-1	-1	44	-1	25	55	13	-1	59	-1	-1	11	-1	20	-1	-1	-1	57	56	58	-1	7	-1
-1	-1	20	-1	29	-1	-1	-1	-1	40	-1	3	37	28	-1	64	-1	-1	61	-1	-1	-1	-1	5	58	62	53	-1	36	-1	19	-1	7	27	42	-1	39	-1	-1	-1	-1	-1	-1	-1	-1	-1	-1	-1	-1	-1	1	-1	-1	-1	-1	-1	-1	-1	-1	14	-1	-1	-1	32
-1	-1	-1	-1	-1	19	17	-1	53	35	-1	-1	-1	27	-1	-1	15	20	-1	32	-1	-1	-1	39	-1	-1	-1	5	-1	-1	-1	-1	-1	8	-1	-1	-1	-1	-1	-1	51	-1	59	-1	14	-1	-1	-1	41	-1	-1	-1	-1	46	-1	-1	-1	7	-1	16	12	48	-1	-1
-1	-1	-1	46	51	26	1	-1	10	43	-1	-1	-1	56	38	63	25	60	-1	-1	-1	54	45	62	-1	-1	9	-1	-1	18	-1	40	-1	-1	64	57	-1	53	-1	-1	4	-1	-1	-1	5	-1	12	21	32	-1	-1	-1	15	7	-1	-1	-1	-1	2	27	-1	-1	33	-1
-1	14	-1	40	-1	-1	-1	21	-1	-1	34	-1	41	50	-1	39	-1	-1	38	-1	36	13	-1	-1	-1	-1	-1	-1	-1	-1	7	-1	-1	20	-1	-1	-1	-1	-1	-1	1	-1	-1	-1	17	9	-1	-1	-1	-1	-1	-1	-1	52	51	-1	-1	64	10	-1	-1	-1	-1	-1
16	62	53	31	55	-1	-1	7	-1	25	9	-1	-1	-1	-1	-1	37	41	57	-1	-1	50	35	22	-1	-1	48	-1	-1	51	-1	28	-1	-1	-1	-1	3	-1	-1	-1	-1	19	-1	43	-1	8	23	-1	12	-1	39	-1	27	-1	-1	-1	18	24	46	-1	-1	-1	38	-1
-1	59	-1	-1	57	-1	-1	10	7	46	58	-1	-1	60	-1	-1	34	16	43	-1	-1	-1	-1	28	-1	50	23	-1	-1	26	54	63	61	12	49	41	-1	-1	-1	-1	18	-1	40	39	-1	42	-1	56	17	20	53	2	-1	-1	11	-1	-1	25	21	-1	5	-1	-1	29
-1	54	35	-1	-1	-1	-1	-1	-1	-1	-1	-1	59	-1	-1	45	7	-1	-1	64	12	-1	49	-1	32	1	46	3	29	-1	2	-1	-1	-1	-1	-1	5	-1	-1	-1	-1	26	-1	48	41	38	-1	53	42	-1	-1	-1	-1	-1	-1	-1	40	28	-1	-1	-1	-1	19	20
-1	-1	-1	-1	37	-1	60	58	51	-1	-1	-1	44	24	-1	22	-1	4	-1	-1	-1	-1	46	-1	-1	-1	-1	-1	-1	-1	-1	-1	-1	21	-1	59	45	19	-1	-1	-1	63	-1	-1	-1	28	3	32	-1	-1	-1	50	-1	36	-1	54	-1	55	-1	-1	-1	-1	47	1
63	17	23	-1	-1	-1	-1	-1	-1	-1	-1	-1	18	-1	25	-1	-1	-1	22	-1	-1	41	-1	-1	7	-1	59	-1	-1	19	46	60	52	44	-1	-1	27	51	-1	-1	53	-1	20	9	-1	54	-1	-1	-1	-1	37	11	-1	-1	-1	55	31	57	-1	13	-1	-1	-1	-1
-1	57	-1	-1	8	-1	4	-1	46	16	-1	-1	-1	-1	-1	42	59	-1	-1	29	-1	-1	47	3	-1	-1	-1	-1	-1	-1	9	-1	22	-1	-1	61	-1	-1	-1	-1	-1	-1	-1	-1	10	-1	-1	-1	21	-1	27	-1	-1	-1	-1	62	43	-1	63	-1	-1	-1	-1	-1
-1	30	-1	54	-1	12	-1	-1	-1	-1	7	-1	13	39	45	-1	55	17	-1	27	-1	1	-1	57	-1	-1	-1	20	18	-1	-1	56	-1	36	-1	16	-1	40	-1	53	-1	-1	42	29	22	-1	44	60	49	64	-1	59	47	-1	-1	25	-1	50	52	-1	-1	-1	46	-1
-1	-1	31	22	-1	-1	-1	-1	1	-1	-1	-1	-1	59	43	-1	63	38	-1	-1	-1	-1	60	52	-1	-1	45	25	8	-1	61	-1	-1	-1	-1	34	-1	-1	13	-1	-1	2	41	-1	-1	24	-1	4	50	-1	-1	51	-1	-1	-1	-1	-1	6	-1	32	35	14	-1	-1
53	-1	-1	-1	-1	-1	-1	-1	-1	64	61	-1	-1	37	23	19	45	-1	-1	-1	51	4	-1	56	-1	41	47	44	-1	15	-1	-1	26	-1	5	-1	-1	-1	-1	25	58	62	-1	-1	-1	6	-1	8	-1	18	-1	1	7	13	-1	42	55	-1	29	40	-1	27	39	28
-1	-1	60	-1	-1	32	-1	-1	-1	22	-1	57	-1	29	-1	38	-1	21	-1	5	46	-1	14	18	-1	35	-1	13	-1	27	-1	50	-1	45	-1	39	24	6	-1	41	-1	-1	56	11	-1	40	-1	-1	2	28	52	-1	34	8	54	-1	58	-1	-1	44	53	-1	12	-1
-1	-1	-1	-1	-1	36	-1	-1	8	4	63	-1	-1	-1	-1	-1	-1	-1	-1	62	-1	-1	-1	-1	-1	52	-1	-1	-1	58	-1	-1	-1	-1	-1	-1	-1	-1	60	18	-1	-1	-1	-1	-1	57	49	19	46	-1	48	-1	44	40	-1	-1	-1	-1	-1	17	-1	25	64	26
-1	-1	-1	34	50	44	-1	51	-1	-1	-1	-1	-1	53	-1	36	-1	61	9	20	-1	-1	-1	-1	-1	-1	5	-1	-1	-1	57	-1	-1	-1	35	54	-1	-1	7	-1	12	-1	46	32	-1	13	-1	-1	-1	-1	-1	-1	-1	-1	-1	-1	10	-1	-1	-1	19	-1	60	24
64 
6 14 18 16
18 41 20 39
24 27 46 34
55 62 16 19
38 19 11 36
8 42 58 28
56 44 46 49
14 47 39 12
16 7 36 20
5 17 7 56
61 9 44 39
61 25 52 26
23 37 14 19
51 28 57 42
62 62 30 50
49 48 62 45
7 16 48 20
26 19 25 2
6 27 11 20
33 36 25 38
46 33 29 53
51 44 28 51
26 50 64 17
6 17 37 51
32 31 44 49
34 16 7 40
33 41 63 8
29 5 19 29
57 4 50 16
56 3 52 27
12 41 4 22
16 30 31 50
21 17 44 53
24 59 63 44
56 25 9 17
6 18 14 51
58 62 17 4
57 29 49 1
17 40 22 23
7 18 34 25
51 58 4 24
20 45 46 8
5 43 55 33
15 32 60 22
36 42 53 43
42 1 16 53
54 29 14 15
17 54 27 10
58 21 9 62
43 55 30 60
33 24 63 45
34 1 39 14
15 20 56 19
49 9 10 50
45 12 52 48
55 35 8 41
61 55 1 11
60 16 31 27
49 49 30 34
27 45 58 54
29 54 48 14
54 60 38 1
38 15 13 45
18 37 47 21
